
Gurobi 10.0.1 (win64) logging started Sat Sep  9 15:29:13 2023

Set parameter LogFile to value "results-heuristic-start//log/URT_12_deadline.log"
Gurobi Optimizer version 10.0.1 build v10.0.1rc0 (win64)

CPU model: AMD Ryzen 7 3700X 8-Core Processor, instruction set [SSE2|AVX|AVX2]
Thread count: 8 physical cores, 16 logical processors, using up to 16 threads

Optimize a model with 492 rows, 331 columns and 1945 nonzeros
Model fingerprint: 0x4b35e30b
Model has 1 quadratic constraint
Variable types: 45 continuous, 286 integer (285 binary)
Coefficient statistics:
  Matrix range     [1e+00, 1e+06]
  QMatrix range    [1e+00, 1e+00]
  QLMatrix range   [1e+00, 1e+01]
  Objective range  [1e+00, 1e+00]
  Bounds range     [1e+00, 1e+00]
  RHS range        [1e+00, 3e+06]

Warning: Completing partial solution with 271 unfixed non-continuous variables out of 286
User MIP start produced solution with objective 964 (0.02s)
Loaded user MIP start with objective 964

Presolve removed 68 rows and 120 columns
Presolve time: 0.00s
Presolved: 440 rows, 226 columns, 1923 nonzeros
Variable types: 60 continuous, 166 integer (165 binary)

Root relaxation: objective 0.000000e+00, 53 iterations, 0.00 seconds (0.00 work units)

    Nodes    |    Current Node    |     Objective Bounds      |     Work
 Expl Unexpl |  Obj  Depth IntInf | Incumbent    BestBd   Gap | It/Node Time

     0     0    0.00000    0    2  964.00000    0.00000   100%     -    0s
H    0     0                     129.0000000    0.00000   100%     -    0s
H    0     0                     128.0000000    0.00000   100%     -    0s
H    0     0                     118.0000000    0.00000   100%     -    0s
     0     0    0.00000    0    6  118.00000    0.00000   100%     -    0s
H    0     0                      88.0000000    0.00000   100%     -    0s
H    0     0                      55.0000000    0.00000   100%     -    0s
     0     0    0.00000    0    9   55.00000    0.00000   100%     -    0s
     0     0    0.00000    0    2   55.00000    0.00000   100%     -    0s
     0     0    0.00000    0    5   55.00000    0.00000   100%     -    0s
     0     0    0.00000    0    7   55.00000    0.00000   100%     -    0s
     0     0    0.00000    0    7   55.00000    0.00000   100%     -    0s
     0     0    0.00000    0    7   55.00000    0.00000   100%     -    0s
     0     0    0.00000    0    7   55.00000    0.00000   100%     -    0s
H    0     0                      50.0000000    0.00000   100%     -    0s
     0     2    0.00000    0    7   50.00000    0.00000   100%     -    0s
H   35    25                      46.0000000    2.00000  95.7%  35.0    0s
H   38    25                      40.0000000    2.00000  95.0%  33.4    0s
H   64    50                      39.0000000    2.00000  94.9%  23.1    0s
H   79    64                      37.0000000    2.00000  94.6%  21.0    0s
H  138   101                      36.0000000    2.00000  94.4%  15.7    0s
H  175   141                      31.0000000    2.00000  93.5%  13.9    0s
H14938  1222                      29.0000000    4.19768  85.5%   0.4    1s
 42854  7696    9.00000   39    7   29.00000    8.00000  72.4%   5.3    5s
 43247  7864   12.00000   58   12   29.00000    8.00000  72.4%   5.6   10s
*83151  1642              66      28.0000000   22.00000  21.4%   9.5   12s

Cutting planes:
  Learned: 9
  Gomory: 5
  Cover: 1
  Implied bound: 4
  MIR: 5
  Flow cover: 8

Explored 88857 nodes (853582 simplex iterations) in 12.34 seconds (3.68 work units)
Thread count was 16 (of 16 available processors)

Solution count 10: 28 28 29 ... 50

Optimal solution found (tolerance 1.00e-04)
Best objective 2.800000000000e+01, best bound 2.800000000000e+01, gap 0.0000%
Warning: constraint name "precedence between 0,2 to 0,0 if x_[j,l,h,z,i]=1" has a space
Warning: constraint name "precedence between 0,2 to 0,0 if x_[j,l,h,z,i]=1" has a space
Warning: default constraint names used to write mps file
